p cnf 223 944
1 2 3 4 5 6 7 8 9 10 11 12 13 14 15 16 17 18 19 20 21 22 23 0
24 25 26 27 28 29 30 31 32 33 34 35 36 37 38 39 40 41 42 43 44 45 0
46 47 48 49 50 51 52 53 54 55 56 57 58 59 60 61 62 63 64 65 66 67 68 69 0
70 71 72 73 74 75 76 77 78 79 80 81 82 83 84 85 86 87 88 89 90 91 0
112 113 114 115 116 117 118 119 120 121 122 123 124 125 126 127 128 129 130 131 132 133 134 0
135 136 137 138 139 140 141 142 143 144 145 146 147 148 149 150 151 152 153 154 155 156 0
157 158 159 160 161 162 163 164 165 166 167 168 169 170 171 172 173 174 175 176 177 178 179 180 0
181 182 183 184 185 186 187 188 189 190 191 192 193 194 195 196 197 198 199 200 0
201 202 203 204 205 206 207 208 209 210 211 212 213 214 215 216 217 218 219 220 221 222 223 0
-1 -24 0
-1 -46 0
-1 -70 0
-1 -92 0
-1 -112 0
-1 -135 0
-1 -157 0
-1 -181 0
-1 -201 0
-24 -46 0
-24 -70 0
-24 -92 0
-24 -112 0
-24 -135 0
-24 -157 0
-24 -181 0
-24 -201 0
-46 -70 0
-46 -92 0
-46 -112 0
-46 -135 0
-46 -157 0
-46 -181 0
-46 -201 0
-70 -92 0
-70 -112 0
-70 -135 0
-70 -157 0
-70 -181 0
-70 -201 0
-92 -112 0
-92 -135 0
-92 -157 0
-92 -181 0
-92 -201 0
-112 -135 0
-112 -157 0
-112 -181 0
-112 -201 0
-135 -157 0
-135 -181 0
-135 -201 0
-157 -181 0
-157 -201 0
-181 -201 0
-2 -25 0
-2 -47 0
-2 -71 0
-2 -93 0
-2 -113 0
-2 -136 0
-2 -158 0
-2 -182 0
-2 -202 0
-25 -47 0
-25 -71 0
-25 -93 0
-25 -113 0
-25 -136 0
-25 -158 0
-25 -182 0
-25 -202 0
-47 -71 0
-47 -93 0
-47 -113 0
-47 -136 0
-47 -158 0
-47 -182 0
-47 -202 0
-71 -93 0
-71 -113 0
-71 -136 0
-71 -158 0
-71 -182 0
-71 -202 0
-93 -113 0
-93 -136 0
-93 -158 0
-93 -182 0
-93 -202 0
-113 -136 0
-113 -158 0
-113 -182 0
-113 -202 0
-136 -158 0
-136 -182 0
-136 -202 0
-158 -182 0
-158 -202 0
-182 -202 0
-3 -26 0
-3 -48 0
-3 -72 0
-3 -94 0
-3 -114 0
-3 -137 0
-3 -159 0
-3 -203 0
-26 -48 0
-26 -72 0
-26 -94 0
-26 -114 0
-26 -137 0
-26 -159 0
-26 -203 0
-48 -72 0
-48 -94 0
-48 -114 0
-48 -137 0
-48 -159 0
-48 -203 0
-72 -94 0
-72 -114 0
-72 -137 0
-72 -159 0
-72 -203 0
-94 -114 0
-94 -137 0
-94 -159 0
-94 -203 0
-114 -137 0
-114 -159 0
-114 -203 0
-137 -159 0
-137 -203 0
-159 -203 0
-4 -27 0
-4 -49 0
-4 -73 0
-4 -95 0
-4 -115 0
-4 -138 0
-4 -160 0
-4 -204 0
-27 -49 0
-27 -73 0
-27 -95 0
-27 -115 0
-27 -138 0
-27 -160 0
-27 -204 0
-49 -73 0
-49 -95 0
-49 -115 0
-49 -138 0
-49 -160 0
-49 -204 0
-73 -95 0
-73 -115 0
-73 -138 0
-73 -160 0
-73 -204 0
-95 -115 0
-95 -138 0
-95 -160 0
-95 -204 0
-115 -138 0
-115 -160 0
-115 -204 0
-138 -160 0
-138 -204 0
-160 -204 0
-5 -28 0
-5 -50 0
-5 -74 0
-5 -96 0
-5 -116 0
-5 -139 0
-5 -161 0
-5 -183 0
-5 -205 0
-28 -50 0
-28 -74 0
-28 -96 0
-28 -116 0
-28 -139 0
-28 -161 0
-28 -183 0
-28 -205 0
-50 -74 0
-50 -96 0
-50 -116 0
-50 -139 0
-50 -161 0
-50 -183 0
-50 -205 0
-74 -96 0
-74 -116 0
-74 -139 0
-74 -161 0
-74 -183 0
-74 -205 0
-96 -116 0
-96 -139 0
-96 -161 0
-96 -183 0
-96 -205 0
-116 -139 0
-116 -161 0
-116 -183 0
-116 -205 0
-139 -161 0
-139 -183 0
-139 -205 0
-161 -183 0
-161 -205 0
-183 -205 0
-6 -51 0
-6 -75 0
-6 -140 0
-6 -162 0
-6 -206 0
-51 -75 0
-51 -140 0
-51 -162 0
-51 -206 0
-75 -140 0
-75 -162 0
-75 -206 0
-140 -162 0
-140 -206 0
-162 -206 0
-7 -29 0
-7 -52 0
-7 -76 0
-7 -97 0
-7 -117 0
-7 -141 0
-7 -163 0
-7 -184 0
-7 -207 0
-29 -52 0
-29 -76 0
-29 -97 0
-29 -117 0
-29 -141 0
-29 -163 0
-29 -184 0
-29 -207 0
-52 -76 0
-52 -97 0
-52 -117 0
-52 -141 0
-52 -163 0
-52 -184 0
-52 -207 0
-76 -97 0
-76 -117 0
-76 -141 0
-76 -163 0
-76 -184 0
-76 -207 0
-97 -117 0
-97 -141 0
-97 -163 0
-97 -184 0
-97 -207 0
-117 -141 0
-117 -163 0
-117 -184 0
-117 -207 0
-141 -163 0
-141 -184 0
-141 -207 0
-163 -184 0
-163 -207 0
-184 -207 0
-8 -30 0
-8 -53 0
-8 -77 0
-8 -98 0
-8 -118 0
-8 -164 0
-8 -185 0
-8 -208 0
-30 -53 0
-30 -77 0
-30 -98 0
-30 -118 0
-30 -164 0
-30 -185 0
-30 -208 0
-53 -77 0
-53 -98 0
-53 -118 0
-53 -164 0
-53 -185 0
-53 -208 0
-77 -98 0
-77 -118 0
-77 -164 0
-77 -185 0
-77 -208 0
-98 -118 0
-98 -164 0
-98 -185 0
-98 -208 0
-118 -164 0
-118 -185 0
-118 -208 0
-164 -185 0
-164 -208 0
-185 -208 0
-31 -54 0
-31 -99 0
-31 -119 0
-31 -142 0
-31 -165 0
-31 -186 0
-31 -209 0
-54 -99 0
-54 -119 0
-54 -142 0
-54 -165 0
-54 -186 0
-54 -209 0
-99 -119 0
-99 -142 0
-99 -165 0
-99 -186 0
-99 -209 0
-119 -142 0
-119 -165 0
-119 -186 0
-119 -209 0
-142 -165 0
-142 -186 0
-142 -209 0
-165 -186 0
-165 -209 0
-186 -209 0
-9 -32 0
-9 -55 0
-9 -78 0
-9 -100 0
-9 -120 0
-9 -143 0
-9 -166 0
-9 -187 0
-9 -210 0
-32 -55 0
-32 -78 0
-32 -100 0
-32 -120 0
-32 -143 0
-32 -166 0
-32 -187 0
-32 -210 0
-55 -78 0
-55 -100 0
-55 -120 0
-55 -143 0
-55 -166 0
-55 -187 0
-55 -210 0
-78 -100 0
-78 -120 0
-78 -143 0
-78 -166 0
-78 -187 0
-78 -210 0
-100 -120 0
-100 -143 0
-100 -166 0
-100 -187 0
-100 -210 0
-120 -143 0
-120 -166 0
-120 -187 0
-120 -210 0
-143 -166 0
-143 -187 0
-143 -210 0
-166 -187 0
-166 -210 0
-187 -210 0
-10 -56 0
-10 -79 0
-10 -121 0
-10 -144 0
-10 -167 0
-10 -188 0
-10 -211 0
-56 -79 0
-56 -121 0
-56 -144 0
-56 -167 0
-56 -188 0
-56 -211 0
-79 -121 0
-79 -144 0
-79 -167 0
-79 -188 0
-79 -211 0
-121 -144 0
-121 -167 0
-121 -188 0
-121 -211 0
-144 -167 0
-144 -188 0
-144 -211 0
-167 -188 0
-167 -211 0
-188 -211 0
-11 -33 0
-11 -57 0
-11 -80 0
-11 -101 0
-11 -122 0
-11 -145 0
-11 -168 0
-11 -189 0
-11 -212 0
-33 -57 0
-33 -80 0
-33 -101 0
-33 -122 0
-33 -145 0
-33 -168 0
-33 -189 0
-33 -212 0
-57 -80 0
-57 -101 0
-57 -122 0
-57 -145 0
-57 -168 0
-57 -189 0
-57 -212 0
-80 -101 0
-80 -122 0
-80 -145 0
-80 -168 0
-80 -189 0
-80 -212 0
-101 -122 0
-101 -145 0
-101 -168 0
-101 -189 0
-101 -212 0
-122 -145 0
-122 -168 0
-122 -189 0
-122 -212 0
-145 -168 0
-145 -189 0
-145 -212 0
-168 -189 0
-168 -212 0
-189 -212 0
-12 -34 0
-12 -58 0
-12 -81 0
-12 -102 0
-12 -123 0
-12 -169 0
-12 -190 0
-12 -213 0
-34 -58 0
-34 -81 0
-34 -102 0
-34 -123 0
-34 -169 0
-34 -190 0
-34 -213 0
-58 -81 0
-58 -102 0
-58 -123 0
-58 -169 0
-58 -190 0
-58 -213 0
-81 -102 0
-81 -123 0
-81 -169 0
-81 -190 0
-81 -213 0
-102 -123 0
-102 -169 0
-102 -190 0
-102 -213 0
-123 -169 0
-123 -190 0
-123 -213 0
-169 -190 0
-169 -213 0
-190 -213 0
-13 -35 0
-13 -59 0
-13 -82 0
-13 -103 0
-13 -124 0
-13 -146 0
-13 -170 0
-13 -214 0
-35 -59 0
-35 -82 0
-35 -103 0
-35 -124 0
-35 -146 0
-35 -170 0
-35 -214 0
-59 -82 0
-59 -103 0
-59 -124 0
-59 -146 0
-59 -170 0
-59 -214 0
-82 -103 0
-82 -124 0
-82 -146 0
-82 -170 0
-82 -214 0
-103 -124 0
-103 -146 0
-103 -170 0
-103 -214 0
-124 -146 0
-124 -170 0
-124 -214 0
-146 -170 0
-146 -214 0
-170 -214 0
-14 -36 0
-14 -60 0
-14 -83 0
-14 -104 0
-14 -125 0
-14 -147 0
-14 -171 0
-14 -191 0
-14 -215 0
-36 -60 0
-36 -83 0
-36 -104 0
-36 -125 0
-36 -147 0
-36 -171 0
-36 -191 0
-36 -215 0
-60 -83 0
-60 -104 0
-60 -125 0
-60 -147 0
-60 -171 0
-60 -191 0
-60 -215 0
-83 -104 0
-83 -125 0
-83 -147 0
-83 -171 0
-83 -191 0
-83 -215 0
-104 -125 0
-104 -147 0
-104 -171 0
-104 -191 0
-104 -215 0
-125 -147 0
-125 -171 0
-125 -191 0
-125 -215 0
-147 -171 0
-147 -191 0
-147 -215 0
-171 -191 0
-171 -215 0
-191 -215 0
-15 -37 0
-15 -61 0
-15 -84 0
-15 -105 0
-15 -126 0
-15 -148 0
-15 -172 0
-15 -192 0
-15 -216 0
-37 -61 0
-37 -84 0
-37 -105 0
-37 -126 0
-37 -148 0
-37 -172 0
-37 -192 0
-37 -216 0
-61 -84 0
-61 -105 0
-61 -126 0
-61 -148 0
-61 -172 0
-61 -192 0
-61 -216 0
-84 -105 0
-84 -126 0
-84 -148 0
-84 -172 0
-84 -192 0
-84 -216 0
-105 -126 0
-105 -148 0
-105 -172 0
-105 -192 0
-105 -216 0
-126 -148 0
-126 -172 0
-126 -192 0
-126 -216 0
-148 -172 0
-148 -192 0
-148 -216 0
-172 -192 0
-172 -216 0
-192 -216 0
-16 -38 0
-16 -62 0
-16 -85 0
-16 -106 0
-16 -127 0
-16 -149 0
-16 -173 0
-16 -193 0
-16 -217 0
-38 -62 0
-38 -85 0
-38 -106 0
-38 -127 0
-38 -149 0
-38 -173 0
-38 -193 0
-38 -217 0
-62 -85 0
-62 -106 0
-62 -127 0
-62 -149 0
-62 -173 0
-62 -193 0
-62 -217 0
-85 -106 0
-85 -127 0
-85 -149 0
-85 -173 0
-85 -193 0
-85 -217 0
-106 -127 0
-106 -149 0
-106 -173 0
-106 -193 0
-106 -217 0
-127 -149 0
-127 -173 0
-127 -193 0
-127 -217 0
-149 -173 0
-149 -193 0
-149 -217 0
-173 -193 0
-173 -217 0
-193 -217 0
-17 -39 0
-17 -63 0
-17 -86 0
-17 -107 0
-17 -128 0
-17 -150 0
-17 -174 0
-17 -194 0
-39 -63 0
-39 -86 0
-39 -107 0
-39 -128 0
-39 -150 0
-39 -174 0
-39 -194 0
-63 -86 0
-63 -107 0
-63 -128 0
-63 -150 0
-63 -174 0
-63 -194 0
-86 -107 0
-86 -128 0
-86 -150 0
-86 -174 0
-86 -194 0
-107 -128 0
-107 -150 0
-107 -174 0
-107 -194 0
-128 -150 0
-128 -174 0
-128 -194 0
-150 -174 0
-150 -194 0
-174 -194 0
-18 -40 0
-18 -64 0
-18 -87 0
-18 -108 0
-18 -129 0
-18 -151 0
-18 -175 0
-18 -195 0
-18 -218 0
-40 -64 0
-40 -87 0
-40 -108 0
-40 -129 0
-40 -151 0
-40 -175 0
-40 -195 0
-40 -218 0
-64 -87 0
-64 -108 0
-64 -129 0
-64 -151 0
-64 -175 0
-64 -195 0
-64 -218 0
-87 -108 0
-87 -129 0
-87 -151 0
-87 -175 0
-87 -195 0
-87 -218 0
-108 -129 0
-108 -151 0
-108 -175 0
-108 -195 0
-108 -218 0
-129 -151 0
-129 -175 0
-129 -195 0
-129 -218 0
-151 -175 0
-151 -195 0
-151 -218 0
-175 -195 0
-175 -218 0
-195 -218 0
-19 -41 0
-19 -65 0
-19 -88 0
-19 -130 0
-19 -152 0
-19 -176 0
-19 -196 0
-19 -219 0
-41 -65 0
-41 -88 0
-41 -130 0
-41 -152 0
-41 -176 0
-41 -196 0
-41 -219 0
-65 -88 0
-65 -130 0
-65 -152 0
-65 -176 0
-65 -196 0
-65 -219 0
-88 -130 0
-88 -152 0
-88 -176 0
-88 -196 0
-88 -219 0
-130 -152 0
-130 -176 0
-130 -196 0
-130 -219 0
-152 -176 0
-152 -196 0
-152 -219 0
-176 -196 0
-176 -219 0
-196 -219 0
-20 -42 0
-20 -66 0
-20 -89 0
-20 -109 0
-20 -131 0
-20 -153 0
-20 -177 0
-20 -197 0
-20 -220 0
-42 -66 0
-42 -89 0
-42 -109 0
-42 -131 0
-42 -153 0
-42 -177 0
-42 -197 0
-42 -220 0
-66 -89 0
-66 -109 0
-66 -131 0
-66 -153 0
-66 -177 0
-66 -197 0
-66 -220 0
-89 -109 0
-89 -131 0
-89 -153 0
-89 -177 0
-89 -197 0
-89 -220 0
-109 -131 0
-109 -153 0
-109 -177 0
-109 -197 0
-109 -220 0
-131 -153 0
-131 -177 0
-131 -197 0
-131 -220 0
-153 -177 0
-153 -197 0
-153 -220 0
-177 -197 0
-177 -220 0
-197 -220 0
-21 -43 0
-21 -67 0
-21 -90 0
-21 -110 0
-21 -132 0
-21 -154 0
-21 -178 0
-21 -198 0
-21 -221 0
-43 -67 0
-43 -90 0
-43 -110 0
-43 -132 0
-43 -154 0
-43 -178 0
-43 -198 0
-43 -221 0
-67 -90 0
-67 -110 0
-67 -132 0
-67 -154 0
-67 -178 0
-67 -198 0
-67 -221 0
-90 -110 0
-90 -132 0
-90 -154 0
-90 -178 0
-90 -198 0
-90 -221 0
-110 -132 0
-110 -154 0
-110 -178 0
-110 -198 0
-110 -221 0
-132 -154 0
-132 -178 0
-132 -198 0
-132 -221 0
-154 -178 0
-154 -198 0
-154 -221 0
-178 -198 0
-178 -221 0
-198 -221 0
-22 -44 0
-22 -68 0
-22 -111 0
-22 -133 0
-22 -155 0
-22 -179 0
-22 -199 0
-22 -222 0
-44 -68 0
-44 -111 0
-44 -133 0
-44 -155 0
-44 -179 0
-44 -199 0
-44 -222 0
-68 -111 0
-68 -133 0
-68 -155 0
-68 -179 0
-68 -199 0
-68 -222 0
-111 -133 0
-111 -155 0
-111 -179 0
-111 -199 0
-111 -222 0
-133 -155 0
-133 -179 0
-133 -199 0
-133 -222 0
-155 -179 0
-155 -199 0
-155 -222 0
-179 -199 0
-179 -222 0
-199 -222 0
-23 -45 0
-23 -69 0
-23 -91 0
-23 -134 0
-23 -156 0
-23 -180 0
-23 -200 0
-23 -223 0
-45 -69 0
-45 -91 0
-45 -134 0
-45 -156 0
-45 -180 0
-45 -200 0
-45 -223 0
-69 -91 0
-69 -134 0
-69 -156 0
-69 -180 0
-69 -200 0
-69 -223 0
-91 -134 0
-91 -156 0
-91 -180 0
-91 -200 0
-91 -223 0
-134 -156 0
-134 -180 0
-134 -200 0
-134 -223 0
-156 -180 0
-156 -200 0
-156 -223 0
-180 -200 0
-180 -223 0
-200 -223 0
